c cksystemsgroup.github.io/unicorn
c CNF contains a total of 396 clauses.
c CNF contains a total of 199 variables.
c CNF clauses cover 1 bad states.
c Variable name mapping (81 names):
c   1: input[bit=39]
c   2: input[bit=39]
c   5: input[bit=38]
c   6: input[bit=38]
c   9: input[bit=37]
c   10: input[bit=37]
c   13: input[bit=36]
c   14: input[bit=36]
c   17: input[bit=35]
c   18: input[bit=35]
c   21: input[bit=34]
c   22: input[bit=34]
c   25: input[bit=33]
c   26: input[bit=33]
c   29: input[bit=32]
c   30: input[bit=32]
c   33: input[bit=31]
c   34: input[bit=31]
c   37: input[bit=30]
c   38: input[bit=30]
c   41: input[bit=29]
c   42: input[bit=29]
c   45: input[bit=28]
c   46: input[bit=28]
c   49: input[bit=27]
c   50: input[bit=27]
c   53: input[bit=26]
c   54: input[bit=26]
c   57: input[bit=25]
c   58: input[bit=25]
c   61: input[bit=24]
c   62: input[bit=24]
c   65: input[bit=23]
c   66: input[bit=23]
c   69: input[bit=22]
c   70: input[bit=22]
c   73: input[bit=21]
c   74: input[bit=21]
c   77: input[bit=20]
c   78: input[bit=20]
c   81: input[bit=19]
c   82: input[bit=19]
c   85: input[bit=18]
c   86: input[bit=18]
c   89: input[bit=17]
c   90: input[bit=17]
c   93: input[bit=16]
c   94: input[bit=16]
c   97: input[bit=15]
c   98: input[bit=15]
c   101: input[bit=14]
c   102: input[bit=14]
c   105: input[bit=13]
c   106: input[bit=13]
c   109: input[bit=12]
c   110: input[bit=12]
c   113: input[bit=11]
c   114: input[bit=11]
c   117: input[bit=10]
c   118: input[bit=10]
c   121: input[bit=9]
c   122: input[bit=9]
c   125: input[bit=8]
c   126: input[bit=8]
c   129: input[bit=7]
c   130: input[bit=7]
c   133: input[bit=6]
c   134: input[bit=6]
c   137: input[bit=5]
c   138: input[bit=5]
c   141: input[bit=4]
c   142: input[bit=4]
c   145: input[bit=3]
c   146: input[bit=3]
c   149: input[bit=2]
c   150: input[bit=2]
c   153: input[bit=1]
c   154: input[bit=1]
c   157: input[bit=0]
c   158: input[bit=0]
c   199: ?
p cnf 199 396
-1 -2 3 0
1 -3 0
2 -3 0
4 0
-5 -6 7 0
5 -7 0
6 -7 0
8 0
-9 -10 11 0
9 -11 0
10 -11 0
12 0
-13 -14 15 0
13 -15 0
14 -15 0
16 0
-17 -18 19 0
17 -19 0
18 -19 0
20 0
-21 -22 23 0
21 -23 0
22 -23 0
24 0
-25 -26 27 0
25 -27 0
26 -27 0
28 0
-29 -30 31 0
29 -31 0
30 -31 0
32 0
-33 -34 35 0
33 -35 0
34 -35 0
36 0
-37 -38 39 0
37 -39 0
38 -39 0
40 0
-41 -42 43 0
41 -43 0
42 -43 0
44 0
-45 -46 47 0
45 -47 0
46 -47 0
48 0
-49 -50 51 0
49 -51 0
50 -51 0
52 0
-53 -54 55 0
53 -55 0
54 -55 0
56 0
-57 -58 59 0
57 -59 0
58 -59 0
60 0
-61 -62 63 0
61 -63 0
62 -63 0
64 0
-65 -66 67 0
65 -67 0
66 -67 0
68 0
-69 -70 71 0
69 -71 0
70 -71 0
72 0
-73 -74 75 0
73 -75 0
74 -75 0
76 0
-77 -78 79 0
77 -79 0
78 -79 0
80 0
-81 -82 83 0
81 -83 0
82 -83 0
84 0
-85 -86 87 0
85 -87 0
86 -87 0
88 0
-89 -90 91 0
89 -91 0
90 -91 0
92 0
-93 -94 95 0
93 -95 0
94 -95 0
96 0
-97 -98 99 0
97 -99 0
98 -99 0
100 0
-101 -102 103 0
101 -103 0
102 -103 0
104 0
-105 -106 107 0
105 -107 0
106 -107 0
108 0
-109 -110 111 0
109 -111 0
110 -111 0
112 0
-113 -114 115 0
113 -115 0
114 -115 0
116 0
-117 -118 119 0
117 -119 0
118 -119 0
120 0
-121 -122 123 0
121 -123 0
122 -123 0
124 0
-125 -126 127 0
125 -127 0
126 -127 0
128 0
-129 -130 131 0
129 -131 0
130 -131 0
-132 0
-133 -134 135 0
133 -135 0
134 -135 0
-136 0
-137 -138 139 0
137 -139 0
138 -139 0
-140 0
-141 -142 143 0
141 -143 0
142 -143 0
144 0
-145 -146 147 0
145 -147 0
146 -147 0
-148 0
-149 -150 151 0
149 -151 0
150 -151 0
-152 0
-153 -154 155 0
153 -155 0
154 -155 0
156 0
-157 -158 159 0
157 -159 0
158 -159 0
155 156 -160 0
155 159 -160 0
-156 -159 160 0
156 159 -160 0
-155 -159 160 0
-155 -156 160 0
151 152 -161 0
151 160 -161 0
-152 -160 161 0
152 160 -161 0
-151 -160 161 0
-151 -152 161 0
147 148 -162 0
147 161 -162 0
-148 -161 162 0
148 161 -162 0
-147 -161 162 0
-147 -148 162 0
143 144 -163 0
143 162 -163 0
-144 -162 163 0
144 162 -163 0
-143 -162 163 0
-143 -144 163 0
139 140 -164 0
139 163 -164 0
-140 -163 164 0
140 163 -164 0
-139 -163 164 0
-139 -140 164 0
135 136 -165 0
135 164 -165 0
-136 -164 165 0
136 164 -165 0
-135 -164 165 0
-135 -136 165 0
131 132 -166 0
131 165 -166 0
-132 -165 166 0
132 165 -166 0
-131 -165 166 0
-131 -132 166 0
127 128 -167 0
127 166 -167 0
-128 -166 167 0
128 166 -167 0
-127 -166 167 0
-127 -128 167 0
123 124 -168 0
123 167 -168 0
-124 -167 168 0
124 167 -168 0
-123 -167 168 0
-123 -124 168 0
119 120 -169 0
119 168 -169 0
-120 -168 169 0
120 168 -169 0
-119 -168 169 0
-119 -120 169 0
115 116 -170 0
115 169 -170 0
-116 -169 170 0
116 169 -170 0
-115 -169 170 0
-115 -116 170 0
111 112 -171 0
111 170 -171 0
-112 -170 171 0
112 170 -171 0
-111 -170 171 0
-111 -112 171 0
107 108 -172 0
107 171 -172 0
-108 -171 172 0
108 171 -172 0
-107 -171 172 0
-107 -108 172 0
103 104 -173 0
103 172 -173 0
-104 -172 173 0
104 172 -173 0
-103 -172 173 0
-103 -104 173 0
99 100 -174 0
99 173 -174 0
-100 -173 174 0
100 173 -174 0
-99 -173 174 0
-99 -100 174 0
95 96 -175 0
95 174 -175 0
-96 -174 175 0
96 174 -175 0
-95 -174 175 0
-95 -96 175 0
91 92 -176 0
91 175 -176 0
-92 -175 176 0
92 175 -176 0
-91 -175 176 0
-91 -92 176 0
87 88 -177 0
87 176 -177 0
-88 -176 177 0
88 176 -177 0
-87 -176 177 0
-87 -88 177 0
83 84 -178 0
83 177 -178 0
-84 -177 178 0
84 177 -178 0
-83 -177 178 0
-83 -84 178 0
79 80 -179 0
79 178 -179 0
-80 -178 179 0
80 178 -179 0
-79 -178 179 0
-79 -80 179 0
75 76 -180 0
75 179 -180 0
-76 -179 180 0
76 179 -180 0
-75 -179 180 0
-75 -76 180 0
71 72 -181 0
71 180 -181 0
-72 -180 181 0
72 180 -181 0
-71 -180 181 0
-71 -72 181 0
67 68 -182 0
67 181 -182 0
-68 -181 182 0
68 181 -182 0
-67 -181 182 0
-67 -68 182 0
63 64 -183 0
63 182 -183 0
-64 -182 183 0
64 182 -183 0
-63 -182 183 0
-63 -64 183 0
59 60 -184 0
59 183 -184 0
-60 -183 184 0
60 183 -184 0
-59 -183 184 0
-59 -60 184 0
55 56 -185 0
55 184 -185 0
-56 -184 185 0
56 184 -185 0
-55 -184 185 0
-55 -56 185 0
51 52 -186 0
51 185 -186 0
-52 -185 186 0
52 185 -186 0
-51 -185 186 0
-51 -52 186 0
47 48 -187 0
47 186 -187 0
-48 -186 187 0
48 186 -187 0
-47 -186 187 0
-47 -48 187 0
43 44 -188 0
43 187 -188 0
-44 -187 188 0
44 187 -188 0
-43 -187 188 0
-43 -44 188 0
39 40 -189 0
39 188 -189 0
-40 -188 189 0
40 188 -189 0
-39 -188 189 0
-39 -40 189 0
35 36 -190 0
35 189 -190 0
-36 -189 190 0
36 189 -190 0
-35 -189 190 0
-35 -36 190 0
31 32 -191 0
31 190 -191 0
-32 -190 191 0
32 190 -191 0
-31 -190 191 0
-31 -32 191 0
27 28 -192 0
27 191 -192 0
-28 -191 192 0
28 191 -192 0
-27 -191 192 0
-27 -28 192 0
23 24 -193 0
23 192 -193 0
-24 -192 193 0
24 192 -193 0
-23 -192 193 0
-23 -24 193 0
19 20 -194 0
19 193 -194 0
-20 -193 194 0
20 193 -194 0
-19 -193 194 0
-19 -20 194 0
15 16 -195 0
15 194 -195 0
-16 -194 195 0
16 194 -195 0
-15 -194 195 0
-15 -16 195 0
11 12 -196 0
11 195 -196 0
-12 -195 196 0
12 195 -196 0
-11 -195 196 0
-11 -12 196 0
7 8 -197 0
7 196 -197 0
-8 -196 197 0
8 196 -197 0
-7 -196 197 0
-7 -8 197 0
3 4 -198 0
3 197 -198 0
-4 -197 198 0
4 197 -198 0
-3 -197 198 0
-3 -4 198 0
-198 -199 0
198 199 0
199 0
